c graph converted from Delauney Triangulation format
c weights on edges removed (lost)
x low 0.00
p edge 657 1958
n 0 1.00
n 534 1.00
n 533 1.00
n 527 1.00
n 448 1.00
n 447 1.00
n 646 1.00
n 12 1.00
n 1 1.00
n 3 1.00
n 4 1.00
n 5 1.00
n 141 1.00
n 269 1.00
n 399 1.00
n 10 1.00
n 2 1.00
n 8 1.00
n 7 1.00
n 53 1.00
n 60 1.00
n 64 1.00
n 6 1.00
n 117 1.00
n 78 1.00
n 11 1.00
n 9 1.00
n 24 1.00
n 32 1.00
n 33 1.00
n 36 1.00
n 14 1.00
n 13 1.00
n 444 1.00
n 16 1.00
n 18 1.00
n 17 1.00
n 15 1.00
n 21 1.00
n 20 1.00
n 19 1.00
n 22 1.00
n 28 1.00
n 29 1.00
n 44 1.00
n 445 1.00
n 23 1.00
n 27 1.00
n 440 1.00
n 25 1.00
n 26 1.00
n 441 1.00
n 463 1.00
n 469 1.00
n 31 1.00
n 30 1.00
n 40 1.00
n 49 1.00
n 50 1.00
n 48 1.00
n 55 1.00
n 34 1.00
n 37 1.00
n 46 1.00
n 35 1.00
n 468 1.00
n 38 1.00
n 43 1.00
n 39 1.00
n 41 1.00
n 42 1.00
n 45 1.00
n 52 1.00
n 57 1.00
n 65 1.00
n 63 1.00
n 68 1.00
n 58 1.00
n 47 1.00
n 61 1.00
n 54 1.00
n 470 1.00
n 51 1.00
n 59 1.00
n 56 1.00
n 62 1.00
n 74 1.00
n 91 1.00
n 69 1.00
n 70 1.00
n 86 1.00
n 471 1.00
n 67 1.00
n 66 1.00
n 75 1.00
n 71 1.00
n 82 1.00
n 79 1.00
n 72 1.00
n 483 1.00
n 76 1.00
n 83 1.00
n 73 1.00
n 92 1.00
n 103 1.00
n 80 1.00
n 90 1.00
n 85 1.00
n 77 1.00
n 84 1.00
n 93 1.00
n 81 1.00
n 89 1.00
n 101 1.00
n 129 1.00
n 131 1.00
n 116 1.00
n 128 1.00
n 105 1.00
n 106 1.00
n 112 1.00
n 96 1.00
n 100 1.00
n 107 1.00
n 94 1.00
n 87 1.00
n 88 1.00
n 102 1.00
n 114 1.00
n 99 1.00
n 104 1.00
n 491 1.00
n 494 1.00
n 497 1.00
n 95 1.00
n 108 1.00
n 97 1.00
n 98 1.00
n 115 1.00
n 110 1.00
n 123 1.00
n 109 1.00
n 113 1.00
n 120 1.00
n 111 1.00
n 132 1.00
n 165 1.00
n 119 1.00
n 118 1.00
n 121 1.00
n 149 1.00
n 122 1.00
n 134 1.00
n 505 1.00
n 127 1.00
n 144 1.00
n 143 1.00
n 151 1.00
n 139 1.00
n 140 1.00
n 130 1.00
n 137 1.00
n 138 1.00
n 157 1.00
n 148 1.00
n 169 1.00
n 147 1.00
n 150 1.00
n 146 1.00
n 124 1.00
n 506 1.00
n 145 1.00
n 125 1.00
n 135 1.00
n 504 1.00
n 126 1.00
n 503 1.00
n 507 1.00
n 136 1.00
n 152 1.00
n 142 1.00
n 133 1.00
n 508 1.00
n 510 1.00
n 159 1.00
n 160 1.00
n 155 1.00
n 156 1.00
n 163 1.00
n 168 1.00
n 210 1.00
n 237 1.00
n 162 1.00
n 164 1.00
n 153 1.00
n 175 1.00
n 188 1.00
n 176 1.00
n 154 1.00
n 161 1.00
n 177 1.00
n 179 1.00
n 158 1.00
n 167 1.00
n 193 1.00
n 166 1.00
n 170 1.00
n 172 1.00
n 171 1.00
n 204 1.00
n 173 1.00
n 174 1.00
n 182 1.00
n 189 1.00
n 190 1.00
n 196 1.00
n 181 1.00
n 187 1.00
n 207 1.00
n 178 1.00
n 180 1.00
n 215 1.00
n 185 1.00
n 511 1.00
n 183 1.00
n 211 1.00
n 192 1.00
n 223 1.00
n 224 1.00
n 184 1.00
n 221 1.00
n 186 1.00
n 191 1.00
n 198 1.00
n 205 1.00
n 567 1.00
n 194 1.00
n 208 1.00
n 195 1.00
n 197 1.00
n 199 1.00
n 233 1.00
n 203 1.00
n 201 1.00
n 200 1.00
n 206 1.00
n 220 1.00
n 209 1.00
n 217 1.00
n 213 1.00
n 202 1.00
n 580 1.00
n 570 1.00
n 574 1.00
n 229 1.00
n 581 1.00
n 246 1.00
n 216 1.00
n 222 1.00
n 225 1.00
n 240 1.00
n 212 1.00
n 218 1.00
n 214 1.00
n 219 1.00
n 226 1.00
n 227 1.00
n 235 1.00
n 231 1.00
n 244 1.00
n 256 1.00
n 245 1.00
n 232 1.00
n 234 1.00
n 230 1.00
n 242 1.00
n 238 1.00
n 247 1.00
n 241 1.00
n 267 1.00
n 228 1.00
n 243 1.00
n 249 1.00
n 255 1.00
n 248 1.00
n 236 1.00
n 254 1.00
n 252 1.00
n 251 1.00
n 250 1.00
n 258 1.00
n 257 1.00
n 266 1.00
n 239 1.00
n 272 1.00
n 253 1.00
n 263 1.00
n 261 1.00
n 262 1.00
n 289 1.00
n 288 1.00
n 264 1.00
n 260 1.00
n 270 1.00
n 274 1.00
n 265 1.00
n 278 1.00
n 586 1.00
n 275 1.00
n 277 1.00
n 259 1.00
n 268 1.00
n 276 1.00
n 294 1.00
n 286 1.00
n 589 1.00
n 279 1.00
n 273 1.00
n 280 1.00
n 284 1.00
n 271 1.00
n 290 1.00
n 293 1.00
n 303 1.00
n 307 1.00
n 281 1.00
n 296 1.00
n 295 1.00
n 592 1.00
n 285 1.00
n 282 1.00
n 300 1.00
n 320 1.00
n 371 1.00
n 291 1.00
n 283 1.00
n 287 1.00
n 292 1.00
n 598 1.00
n 297 1.00
n 301 1.00
n 316 1.00
n 315 1.00
n 313 1.00
n 305 1.00
n 304 1.00
n 314 1.00
n 299 1.00
n 298 1.00
n 341 1.00
n 347 1.00
n 312 1.00
n 328 1.00
n 318 1.00
n 339 1.00
n 309 1.00
n 308 1.00
n 321 1.00
n 325 1.00
n 326 1.00
n 302 1.00
n 331 1.00
n 306 1.00
n 322 1.00
n 311 1.00
n 310 1.00
n 319 1.00
n 330 1.00
n 317 1.00
n 323 1.00
n 324 1.00
n 334 1.00
n 337 1.00
n 342 1.00
n 327 1.00
n 350 1.00
n 358 1.00
n 332 1.00
n 329 1.00
n 336 1.00
n 335 1.00
n 340 1.00
n 333 1.00
n 343 1.00
n 346 1.00
n 348 1.00
n 349 1.00
n 351 1.00
n 352 1.00
n 338 1.00
n 344 1.00
n 355 1.00
n 354 1.00
n 360 1.00
n 356 1.00
n 362 1.00
n 357 1.00
n 370 1.00
n 345 1.00
n 361 1.00
n 353 1.00
n 375 1.00
n 607 1.00
n 610 1.00
n 615 1.00
n 359 1.00
n 366 1.00
n 368 1.00
n 372 1.00
n 389 1.00
n 390 1.00
n 364 1.00
n 387 1.00
n 365 1.00
n 369 1.00
n 373 1.00
n 378 1.00
n 363 1.00
n 367 1.00
n 381 1.00
n 393 1.00
n 617 1.00
n 618 1.00
n 620 1.00
n 622 1.00
n 408 1.00
n 385 1.00
n 382 1.00
n 392 1.00
n 384 1.00
n 388 1.00
n 377 1.00
n 386 1.00
n 374 1.00
n 379 1.00
n 376 1.00
n 397 1.00
n 398 1.00
n 391 1.00
n 401 1.00
n 380 1.00
n 394 1.00
n 396 1.00
n 383 1.00
n 418 1.00
n 411 1.00
n 403 1.00
n 407 1.00
n 412 1.00
n 395 1.00
n 402 1.00
n 432 1.00
n 430 1.00
n 435 1.00
n 422 1.00
n 400 1.00
n 409 1.00
n 416 1.00
n 420 1.00
n 437 1.00
n 417 1.00
n 429 1.00
n 426 1.00
n 406 1.00
n 405 1.00
n 410 1.00
n 404 1.00
n 415 1.00
n 421 1.00
n 438 1.00
n 413 1.00
n 414 1.00
n 423 1.00
n 419 1.00
n 427 1.00
n 424 1.00
n 428 1.00
n 434 1.00
n 425 1.00
n 433 1.00
n 431 1.00
n 439 1.00
n 436 1.00
n 625 1.00
n 624 1.00
n 443 1.00
n 446 1.00
n 442 1.00
n 449 1.00
n 462 1.00
n 452 1.00
n 450 1.00
n 451 1.00
n 473 1.00
n 453 1.00
n 458 1.00
n 455 1.00
n 454 1.00
n 461 1.00
n 459 1.00
n 460 1.00
n 456 1.00
n 475 1.00
n 457 1.00
n 476 1.00
n 467 1.00
n 479 1.00
n 464 1.00
n 465 1.00
n 466 1.00
n 472 1.00
n 480 1.00
n 482 1.00
n 474 1.00
n 520 1.00
n 477 1.00
n 478 1.00
n 519 1.00
n 515 1.00
n 481 1.00
n 485 1.00
n 487 1.00
n 514 1.00
n 484 1.00
n 486 1.00
n 488 1.00
n 489 1.00
n 490 1.00
n 493 1.00
n 513 1.00
n 495 1.00
n 492 1.00
n 496 1.00
n 499 1.00
n 498 1.00
n 512 1.00
n 501 1.00
n 500 1.00
n 502 1.00
n 528 1.00
n 509 1.00
n 559 1.00
n 542 1.00
n 551 1.00
n 516 1.00
n 518 1.00
n 517 1.00
n 522 1.00
n 523 1.00
n 521 1.00
n 526 1.00
n 525 1.00
n 524 1.00
n 530 1.00
n 529 1.00
n 531 1.00
n 539 1.00
n 556 1.00
n 532 1.00
n 535 1.00
n 538 1.00
n 643 1.00
n 642 1.00
n 536 1.00
n 537 1.00
n 639 1.00
n 635 1.00
n 541 1.00
n 540 1.00
n 633 1.00
n 544 1.00
n 543 1.00
n 547 1.00
n 548 1.00
n 549 1.00
n 632 1.00
n 545 1.00
n 546 1.00
n 631 1.00
n 629 1.00
n 628 1.00
n 552 1.00
n 553 1.00
n 550 1.00
n 554 1.00
n 555 1.00
n 557 1.00
n 560 1.00
n 561 1.00
n 558 1.00
n 566 1.00
n 563 1.00
n 564 1.00
n 565 1.00
n 562 1.00
n 568 1.00
n 651 1.00
n 627 1.00
n 569 1.00
n 571 1.00
n 626 1.00
n 572 1.00
n 573 1.00
n 575 1.00
n 576 1.00
n 577 1.00
n 578 1.00
n 656 1.00
n 579 1.00
n 585 1.00
n 584 1.00
n 583 1.00
n 582 1.00
n 587 1.00
n 590 1.00
n 593 1.00
n 591 1.00
n 595 1.00
n 594 1.00
n 588 1.00
n 599 1.00
n 600 1.00
n 601 1.00
n 597 1.00
n 596 1.00
n 603 1.00
n 604 1.00
n 609 1.00
n 614 1.00
n 621 1.00
n 648 1.00
n 602 1.00
n 608 1.00
n 605 1.00
n 606 1.00
n 611 1.00
n 612 1.00
n 613 1.00
n 619 1.00
n 616 1.00
n 623 1.00
n 654 1.00
n 655 1.00
n 652 1.00
n 653 1.00
n 630 1.00
n 636 1.00
n 647 1.00
n 649 1.00
n 650 1.00
n 634 1.00
n 638 1.00
n 637 1.00
n 641 1.00
n 640 1.00
n 644 1.00
n 645 1.00
e 0 534
e 0 533
e 0 527
e 0 448
e 0 447
e 0 646
e 0 12
e 0 1
e 0 3
e 0 4
e 0 5
e 0 141
e 0 269
e 0 399
e 1 12
e 1 10
e 1 2
e 1 3
e 2 10
e 2 3
e 3 10
e 3 8
e 3 4
e 4 8
e 4 7
e 4 53
e 4 60
e 4 64
e 4 6
e 4 5
e 5 6
e 5 117
e 5 141
e 6 64
e 6 78
e 6 117
e 7 11
e 7 9
e 7 24
e 7 32
e 7 33
e 7 8
e 7 36
e 7 53
e 8 9
e 8 10
e 9 11
e 9 10
e 10 12
e 10 11
e 11 12
e 11 24
e 12 447
e 12 14
e 12 24
e 13 447
e 13 444
e 13 14
e 13 16
e 13 18
e 13 17
e 14 447
e 14 16
e 14 15
e 14 24
e 14 21
e 15 16
e 15 20
e 15 21
e 16 17
e 16 20
e 17 20
e 17 18
e 18 444
e 18 19
e 18 22
e 18 20
e 18 28
e 18 29
e 19 444
e 19 22
e 20 21
e 20 28
e 21 24
e 21 28
e 21 32
e 21 44
e 22 444
e 22 445
e 22 23
e 22 27
e 22 29
e 23 445
e 23 440
e 23 25
e 23 26
e 23 27
e 24 32
e 25 440
e 25 441
e 25 26
e 25 463
e 25 469
e 25 31
e 26 27
e 26 30
e 26 31
e 27 29
e 27 30
e 28 29
e 28 40
e 28 44
e 28 49
e 28 50
e 29 30
e 29 40
e 29 48
e 30 31
e 30 48
e 30 55
e 31 469
e 31 34
e 31 37
e 31 55
e 31 46
e 32 33
e 32 35
e 32 44
e 33 35
e 33 36
e 34 469
e 34 37
e 34 468
e 34 38
e 34 43
e 35 36
e 35 39
e 35 44
e 36 39
e 36 41
e 36 53
e 37 38
e 37 42
e 37 46
e 38 43
e 38 42
e 39 41
e 39 44
e 39 45
e 40 48
e 40 50
e 40 52
e 40 57
e 40 65
e 41 45
e 41 53
e 41 63
e 41 68
e 42 46
e 42 43
e 42 58
e 43 468
e 43 47
e 43 58
e 43 61
e 44 45
e 44 49
e 45 49
e 45 63
e 45 54
e 46 58
e 46 55
e 47 468
e 47 470
e 47 51
e 47 61
e 48 55
e 48 52
e 48 59
e 49 50
e 49 54
e 50 54
e 50 65
e 51 470
e 51 56
e 51 62
e 51 61
e 52 59
e 52 57
e 53 68
e 53 60
e 54 63
e 54 65
e 54 74
e 54 91
e 55 59
e 55 69
e 55 58
e 55 70
e 55 86
e 56 471
e 56 470
e 56 62
e 56 67
e 57 59
e 57 65
e 57 69
e 58 61
e 58 66
e 58 70
e 59 69
e 60 68
e 60 64
e 61 66
e 61 62
e 61 75
e 61 71
e 62 67
e 62 75
e 62 82
e 63 68
e 63 74
e 64 68
e 64 78
e 64 79
e 65 69
e 65 72
e 65 91
e 66 70
e 66 71
e 67 471
e 67 483
e 67 82
e 67 76
e 67 83
e 68 74
e 68 73
e 68 79
e 69 72
e 69 86
e 69 92
e 69 103
e 70 71
e 70 86
e 70 80
e 70 90
e 71 75
e 71 80
e 72 91
e 72 85
e 72 103
e 73 74
e 73 77
e 73 79
e 74 77
e 74 84
e 74 91
e 74 93
e 75 82
e 75 80
e 75 81
e 76 82
e 76 83
e 76 89
e 77 84
e 77 79
e 77 101
e 78 79
e 78 117
e 78 129
e 78 131
e 79 101
e 79 116
e 79 128
e 79 129
e 80 81
e 80 90
e 80 105
e 80 106
e 80 112
e 81 82
e 81 96
e 81 100
e 81 106
e 81 107
e 82 89
e 82 94
e 82 96
e 83 483
e 83 87
e 83 88
e 83 89
e 84 93
e 84 101
e 85 91
e 85 103
e 85 102
e 85 114
e 86 92
e 86 90
e 86 99
e 86 104
e 87 491
e 87 483
e 87 494
e 87 497
e 87 88
e 87 95
e 88 95
e 88 89
e 88 108
e 89 94
e 89 108
e 90 105
e 90 104
e 91 93
e 91 97
e 91 102
e 92 99
e 92 103
e 93 97
e 93 98
e 93 101
e 93 115
e 94 96
e 94 108
e 94 110
e 94 123
e 95 497
e 95 108
e 95 109
e 96 100
e 96 110
e 97 98
e 97 102
e 98 115
e 98 102
e 99 103
e 99 113
e 99 104
e 99 120
e 100 107
e 100 111
e 100 110
e 101 116
e 101 115
e 101 132
e 102 114
e 102 115
e 102 165
e 103 113
e 103 114
e 103 119
e 103 118
e 104 105
e 104 120
e 104 121
e 104 149
e 105 112
e 105 121
e 106 107
e 106 112
e 106 122
e 106 111
e 107 111
e 108 109
e 108 123
e 108 134
e 109 497
e 109 505
e 109 127
e 109 134
e 109 144
e 110 111
e 110 123
e 110 143
e 110 151
e 111 122
e 111 143
e 112 122
e 112 121
e 113 119
e 113 120
e 113 139
e 114 118
e 114 165
e 115 132
e 115 140
e 115 165
e 116 128
e 116 130
e 116 137
e 116 132
e 117 131
e 117 141
e 117 138
e 118 119
e 118 157
e 118 165
e 119 139
e 119 148
e 119 157
e 119 169
e 120 139
e 120 147
e 120 149
e 121 122
e 121 149
e 121 150
e 122 143
e 122 150
e 123 134
e 123 146
e 123 151
e 124 127
e 124 505
e 124 506
e 124 145
e 124 125
e 124 135
e 125 504
e 125 506
e 125 126
e 125 135
e 126 503
e 126 504
e 126 507
e 126 135
e 126 136
e 126 152
e 127 505
e 127 145
e 127 144
e 128 129
e 128 130
e 129 131
e 129 130
e 129 138
e 129 142
e 130 137
e 130 142
e 131 138
e 132 137
e 132 140
e 133 508
e 133 507
e 133 136
e 133 510
e 133 159
e 134 146
e 134 144
e 135 145
e 135 152
e 136 507
e 136 152
e 136 159
e 136 160
e 137 142
e 137 140
e 137 155
e 138 142
e 138 141
e 138 156
e 138 163
e 139 147
e 139 148
e 140 155
e 140 165
e 140 168
e 141 163
e 141 210
e 141 237
e 141 269
e 142 155
e 142 156
e 142 162
e 142 164
e 143 150
e 143 151
e 143 153
e 144 145
e 144 146
e 144 175
e 144 188
e 145 152
e 145 175
e 146 151
e 146 176
e 146 188
e 147 149
e 147 148
e 147 154
e 147 161
e 148 161
e 148 169
e 149 154
e 149 150
e 149 177
e 149 179
e 149 158
e 150 153
e 150 158
e 151 153
e 151 167
e 151 176
e 152 160
e 152 175
e 152 193
e 153 158
e 153 167
e 153 166
e 154 161
e 154 177
e 154 170
e 155 162
e 155 168
e 155 172
e 156 163
e 156 164
e 157 165
e 157 169
e 157 171
e 157 204
e 158 166
e 158 179
e 159 510
e 159 160
e 159 173
e 159 174
e 159 182
e 159 189
e 160 174
e 160 193
e 161 169
e 161 170
e 162 164
e 162 172
e 162 190
e 163 164
e 163 190
e 163 196
e 163 210
e 164 190
e 165 168
e 165 181
e 165 187
e 165 204
e 166 167
e 166 179
e 166 207
e 167 176
e 167 207
e 168 172
e 168 178
e 168 181
e 168 180
e 169 170
e 169 171
e 170 171
e 170 177
e 170 215
e 171 204
e 171 215
e 172 178
e 172 185
e 172 190
e 173 511
e 173 510
e 173 182
e 173 183
e 174 189
e 174 193
e 175 188
e 175 193
e 175 211
e 176 188
e 176 192
e 176 207
e 176 223
e 176 224
e 177 179
e 177 184
e 177 215
e 177 221
e 178 180
e 178 185
e 178 186
e 179 184
e 179 207
e 180 181
e 180 186
e 181 187
e 181 186
e 181 191
e 181 198
e 182 189
e 182 183
e 182 205
e 183 511
e 183 567
e 183 194
e 183 205
e 184 207
e 184 208
e 184 221
e 185 186
e 185 191
e 185 195
e 185 190
e 185 197
e 185 196
e 186 191
e 187 198
e 187 199
e 187 204
e 188 192
e 188 211
e 188 233
e 189 193
e 189 203
e 189 205
e 190 196
e 191 195
e 191 198
e 192 223
e 192 233
e 193 203
e 193 211
e 194 567
e 194 201
e 194 200
e 194 205
e 195 198
e 195 197
e 196 197
e 196 206
e 196 210
e 196 220
e 197 198
e 197 199
e 197 206
e 198 199
e 199 206
e 199 209
e 199 217
e 199 204
e 200 201
e 200 205
e 200 213
e 200 202
e 200 580
e 201 567
e 201 570
e 201 202
e 202 570
e 202 574
e 202 580
e 202 229
e 202 581
e 202 246
e 203 205
e 203 211
e 203 216
e 203 222
e 204 215
e 204 225
e 204 217
e 204 240
e 205 216
e 205 212
e 205 213
e 206 209
e 206 218
e 206 220
e 207 208
e 207 214
e 207 219
e 207 224
e 207 226
e 208 214
e 208 221
e 208 227
e 209 217
e 209 218
e 210 220
e 210 235
e 210 231
e 210 237
e 211 233
e 211 244
e 211 222
e 211 256
e 212 216
e 212 213
e 212 222
e 212 245
e 213 580
e 213 245
e 214 219
e 214 227
e 215 221
e 215 225
e 215 232
e 216 222
e 217 218
e 217 234
e 217 240
e 218 220
e 218 234
e 218 230
e 219 227
e 219 226
e 219 242
e 220 235
e 220 238
e 220 230
e 221 232
e 221 227
e 221 247
e 221 241
e 222 245
e 222 256
e 222 267
e 223 224
e 223 228
e 223 243
e 223 233
e 223 249
e 223 255
e 224 226
e 224 228
e 225 240
e 225 248
e 225 236
e 225 232
e 225 254
e 226 228
e 226 242
e 227 247
e 227 242
e 227 252
e 227 251
e 228 243
e 228 242
e 228 250
e 229 580
e 229 246
e 229 258
e 229 257
e 229 266
e 230 238
e 230 234
e 230 239
e 231 235
e 231 237
e 231 269
e 232 241
e 232 254
e 233 244
e 233 249
e 233 272
e 234 239
e 234 240
e 234 253
e 234 263
e 234 261
e 235 238
e 235 262
e 235 269
e 235 289
e 236 248
e 236 240
e 236 288
e 237 269
e 238 239
e 238 262
e 239 253
e 239 262
e 240 263
e 240 264
e 240 288
e 241 247
e 241 254
e 241 260
e 242 250
e 242 252
e 242 270
e 243 250
e 243 255
e 244 256
e 244 272
e 244 274
e 245 580
e 245 258
e 245 265
e 245 267
e 245 278
e 246 581
e 246 586
e 246 257
e 247 251
e 247 260
e 248 254
e 248 275
e 248 288
e 249 272
e 249 255
e 249 277
e 249 259
e 250 255
e 250 259
e 250 270
e 251 252
e 251 260
e 251 268
e 252 268
e 252 270
e 252 276
e 253 261
e 253 262
e 254 275
e 254 260
e 254 294
e 255 259
e 256 267
e 256 274
e 256 286
e 257 586
e 257 266
e 257 589
e 257 279
e 258 580
e 258 266
e 258 265
e 258 273
e 258 280
e 259 277
e 259 270
e 259 284
e 260 268
e 260 294
e 261 263
e 261 271
e 261 262
e 262 271
e 262 290
e 262 289
e 263 264
e 263 271
e 264 288
e 264 271
e 264 293
e 264 303
e 264 307
e 265 273
e 265 278
e 265 281
e 265 296
e 265 295
e 266 280
e 266 279
e 266 592
e 267 278
e 267 285
e 267 282
e 267 286
e 268 276
e 268 300
e 268 294
e 268 320
e 269 289
e 269 371
e 269 399
e 270 276
e 270 284
e 270 300
e 271 290
e 271 307
e 272 277
e 272 274
e 272 291
e 272 283
e 273 280
e 273 296
e 274 286
e 274 283
e 275 288
e 275 287
e 275 294
e 275 292
e 276 300
e 277 284
e 277 291
e 278 281
e 278 285
e 279 589
e 279 592
e 279 598
e 280 592
e 280 296
e 280 297
e 281 295
e 281 285
e 281 301
e 282 285
e 282 286
e 282 316
e 282 315
e 283 286
e 283 291
e 283 313
e 284 291
e 284 305
e 284 304
e 284 300
e 285 301
e 285 316
e 286 313
e 286 315
e 286 314
e 287 288
e 287 292
e 288 293
e 288 299
e 288 292
e 289 290
e 289 298
e 289 341
e 289 347
e 289 371
e 290 298
e 290 307
e 291 313
e 291 305
e 291 312
e 291 328
e 291 318
e 291 339
e 292 294
e 292 299
e 292 309
e 292 308
e 293 303
e 293 299
e 294 309
e 294 321
e 294 325
e 294 320
e 294 326
e 295 301
e 295 296
e 295 302
e 296 297
e 296 302
e 296 331
e 297 592
e 297 306
e 297 331
e 298 307
e 298 322
e 298 341
e 299 303
e 299 308
e 300 304
e 300 311
e 300 320
e 300 310
e 301 302
e 301 316
e 301 319
e 302 319
e 302 330
e 302 331
e 303 307
e 303 317
e 303 323
e 303 324
e 303 308
e 303 334
e 304 305
e 304 311
e 304 312
e 305 312
e 306 592
e 306 331
e 306 598
e 306 337
e 307 317
e 307 322
e 308 309
e 308 334
e 308 321
e 308 342
e 309 321
e 310 320
e 310 311
e 310 327
e 310 350
e 310 358
e 311 312
e 311 327
e 312 327
e 312 318
e 313 314
e 313 328
e 313 332
e 314 315
e 314 332
e 315 316
e 315 329
e 315 332
e 316 329
e 316 319
e 316 336
e 317 322
e 317 323
e 317 335
e 317 340
e 318 327
e 318 333
e 318 339
e 319 330
e 319 336
e 319 343
e 320 326
e 320 350
e 321 325
e 321 342
e 322 335
e 322 341
e 323 324
e 323 340
e 323 346
e 324 334
e 324 346
e 325 326
e 325 342
e 325 348
e 325 349
e 326 350
e 326 349
e 327 333
e 327 351
e 327 358
e 328 332
e 328 339
e 328 352
e 329 332
e 329 338
e 329 344
e 329 336
e 330 331
e 330 343
e 330 355
e 330 354
e 330 360
e 331 337
e 331 355
e 331 356
e 332 338
e 332 352
e 332 362
e 333 339
e 333 351
e 333 357
e 334 346
e 334 342
e 334 370
e 335 341
e 335 340
e 335 345
e 335 361
e 336 343
e 336 344
e 336 353
e 336 354
e 336 375
e 337 598
e 337 607
e 337 356
e 337 610
e 337 615
e 338 344
e 338 362
e 339 352
e 339 359
e 339 366
e 339 357
e 339 368
e 340 346
e 340 361
e 340 372
e 341 345
e 341 347
e 342 348
e 342 370
e 343 354
e 344 353
e 344 362
e 345 347
e 345 361
e 346 372
e 346 370
e 346 389
e 347 361
e 347 371
e 347 390
e 348 349
e 348 364
e 348 370
e 349 364
e 349 350
e 349 387
e 350 358
e 350 365
e 350 369
e 350 387
e 351 357
e 351 358
e 351 373
e 351 378
e 352 359
e 352 362
e 352 363
e 353 362
e 353 367
e 353 375
e 354 360
e 354 375
e 354 381
e 355 360
e 355 356
e 355 393
e 356 615
e 356 617
e 356 618
e 356 393
e 356 620
e 356 622
e 356 408
e 357 368
e 357 378
e 357 385
e 358 365
e 358 373
e 359 363
e 359 366
e 360 381
e 360 393
e 361 372
e 361 390
e 362 367
e 362 363
e 362 382
e 363 366
e 363 382
e 363 392
e 363 384
e 364 370
e 364 388
e 364 387
e 365 369
e 365 377
e 365 373
e 365 386
e 366 368
e 366 374
e 366 379
e 366 384
e 367 375
e 367 382
e 368 374
e 368 376
e 368 385
e 369 377
e 369 387
e 370 389
e 370 388
e 370 397
e 371 390
e 371 399
e 372 389
e 372 398
e 372 391
e 372 390
e 373 378
e 373 386
e 373 401
e 374 376
e 374 379
e 375 381
e 375 380
e 375 382
e 376 379
e 376 385
e 376 394
e 377 386
e 377 387
e 378 385
e 378 396
e 378 401
e 379 384
e 379 394
e 380 381
e 380 383
e 380 382
e 380 418
e 380 411
e 381 383
e 381 393
e 382 392
e 382 411
e 383 393
e 383 418
e 384 392
e 384 394
e 384 403
e 384 407
e 384 412
e 385 396
e 385 395
e 385 394
e 385 402
e 386 401
e 386 387
e 386 432
e 387 388
e 387 430
e 387 435
e 387 432
e 388 397
e 388 430
e 388 422
e 389 398
e 389 397
e 389 400
e 390 399
e 390 391
e 390 409
e 390 416
e 391 398
e 391 409
e 391 420
e 391 437
e 392 411
e 392 417
e 392 412
e 392 429
e 393 418
e 393 408
e 393 426
e 394 403
e 394 402
e 394 406
e 395 396
e 395 402
e 396 402
e 396 401
e 396 405
e 396 410
e 397 400
e 397 404
e 397 422
e 398 400
e 398 404
e 398 415
e 398 421
e 398 437
e 399 416
e 399 438
e 400 404
e 401 405
e 401 432
e 402 406
e 402 410
e 403 407
e 403 406
e 403 413
e 404 415
e 404 422
e 405 410
e 405 414
e 405 423
e 405 432
e 406 413
e 406 410
e 406 419
e 407 413
e 407 412
e 408 622
e 408 427
e 408 426
e 409 416
e 409 420
e 410 414
e 410 419
e 410 424
e 411 417
e 411 418
e 411 428
e 412 413
e 412 429
e 412 434
e 412 425
e 412 433
e 413 419
e 413 425
e 414 423
e 414 424
e 414 431
e 415 422
e 415 421
e 416 420
e 416 438
e 417 429
e 417 428
e 418 428
e 418 426
e 419 424
e 419 425
e 420 438
e 420 437
e 421 422
e 421 437
e 421 439
e 421 436
e 422 430
e 422 436
e 423 431
e 423 432
e 424 431
e 424 425
e 425 433
e 425 431
e 426 427
e 426 625
e 426 428
e 427 622
e 427 620
e 427 618
e 427 617
e 427 624
e 427 625
e 428 429
e 428 434
e 428 625
e 429 434
e 430 436
e 430 435
e 431 432
e 431 433
e 432 435
e 432 433
e 432 439
e 433 434
e 433 439
e 434 625
e 434 439
e 435 436
e 435 439
e 436 439
e 437 438
e 437 439
e 438 439
e 439 625
e 440 441
e 440 443
e 440 445
e 441 446
e 441 443
e 441 442
e 441 463
e 442 446
e 442 449
e 442 462
e 442 463
e 443 447
e 443 446
e 443 445
e 444 447
e 444 445
e 445 447
e 446 448
e 446 447
e 446 449
e 447 448
e 448 527
e 448 452
e 448 450
e 448 451
e 448 473
e 448 449
e 448 453
e 449 453
e 449 458
e 449 462
e 450 452
e 450 453
e 451 452
e 451 473
e 451 455
e 451 454
e 452 454
e 452 453
e 452 458
e 453 458
e 454 455
e 454 458
e 454 461
e 455 473
e 455 459
e 455 460
e 455 461
e 456 475
e 456 473
e 456 459
e 456 457
e 457 459
e 457 475
e 457 476
e 457 467
e 457 479
e 457 471
e 458 462
e 458 464
e 458 461
e 458 465
e 459 473
e 459 460
e 459 467
e 460 461
e 460 465
e 460 467
e 461 465
e 462 463
e 462 464
e 462 466
e 463 466
e 463 469
e 464 466
e 464 468
e 464 465
e 465 467
e 465 468
e 465 470
e 466 468
e 466 469
e 467 470
e 467 471
e 468 469
e 468 470
e 470 471
e 471 479
e 471 472
e 471 483
e 472 479
e 472 480
e 472 483
e 472 482
e 473 527
e 473 474
e 473 475
e 474 527
e 474 475
e 474 520
e 474 476
e 474 477
e 475 476
e 476 477
e 476 478
e 476 479
e 477 520
e 477 519
e 477 478
e 478 479
e 478 519
e 478 515
e 478 480
e 478 481
e 479 480
e 480 481
e 480 482
e 480 485
e 480 487
e 481 515
e 481 514
e 481 484
e 481 487
e 482 483
e 482 485
e 482 486
e 482 491
e 483 491
e 484 514
e 484 487
e 484 488
e 484 489
e 485 486
e 485 487
e 485 490
e 486 490
e 486 491
e 486 494
e 487 488
e 487 490
e 488 489
e 488 490
e 488 493
e 489 514
e 489 513
e 489 493
e 489 495
e 489 492
e 490 493
e 490 494
e 490 496
e 491 494
e 492 495
e 492 493
e 492 499
e 493 496
e 493 498
e 493 499
e 494 496
e 494 497
e 495 513
e 495 512
e 495 499
e 495 501
e 495 500
e 495 502
e 496 497
e 496 498
e 496 505
e 497 505
e 498 499
e 498 505
e 498 504
e 498 506
e 499 502
e 499 504
e 500 501
e 500 512
e 500 528
e 500 507
e 500 508
e 501 502
e 501 503
e 501 507
e 502 503
e 502 504
e 503 507
e 503 504
e 504 506
e 505 506
e 507 508
e 508 528
e 508 509
e 508 510
e 509 528
e 509 559
e 509 511
e 509 510
e 510 511
e 511 559
e 511 567
e 512 513
e 512 542
e 512 551
e 512 528
e 513 514
e 513 516
e 513 542
e 514 518
e 514 515
e 514 517
e 514 516
e 515 519
e 515 518
e 516 522
e 516 517
e 516 523
e 516 542
e 517 522
e 517 518
e 518 519
e 518 521
e 518 526
e 518 522
e 519 521
e 519 520
e 520 527
e 520 521
e 521 526
e 521 527
e 522 525
e 522 524
e 522 530
e 522 523
e 522 526
e 523 533
e 523 530
e 523 529
e 523 531
e 523 539
e 523 542
e 524 525
e 524 533
e 524 530
e 525 533
e 525 527
e 525 526
e 526 527
e 527 533
e 528 551
e 528 556
e 528 559
e 529 531
e 529 533
e 530 533
e 531 532
e 531 533
e 531 539
e 532 533
e 532 534
e 532 535
e 532 538
e 532 539
e 533 534
e 534 646
e 534 643
e 534 535
e 534 642
e 534 536
e 534 537
e 535 537
e 535 538
e 536 642
e 536 537
e 536 639
e 536 635
e 537 538
e 537 541
e 537 635
e 538 540
e 538 539
e 538 541
e 539 540
e 539 542
e 540 541
e 540 542
e 541 635
e 541 542
e 541 633
e 542 633
e 542 544
e 542 543
e 542 551
e 543 544
e 543 547
e 543 548
e 543 549
e 543 551
e 544 633
e 544 632
e 544 545
e 544 546
e 544 547
e 545 632
e 545 631
e 545 546
e 545 629
e 545 628
e 545 552
e 546 547
e 546 552
e 547 548
e 547 552
e 547 553
e 548 549
e 548 550
e 548 553
e 549 551
e 549 550
e 550 551
e 550 553
e 550 554
e 550 555
e 551 555
e 551 557
e 551 556
e 552 628
e 552 553
e 552 560
e 552 561
e 553 554
e 553 558
e 553 560
e 554 555
e 554 558
e 555 557
e 555 558
e 556 559
e 556 557
e 556 566
e 556 567
e 557 558
e 557 566
e 558 560
e 558 563
e 558 566
e 559 567
e 560 563
e 560 561
e 560 564
e 560 565
e 561 562
e 561 628
e 561 564
e 561 568
e 562 628
e 562 651
e 562 627
e 562 568
e 563 565
e 563 566
e 564 565
e 564 568
e 564 569
e 564 571
e 565 566
e 565 570
e 565 571
e 565 574
e 566 567
e 566 570
e 567 570
e 568 627
e 568 626
e 568 569
e 569 626
e 569 572
e 569 571
e 570 574
e 571 572
e 571 574
e 571 573
e 572 626
e 572 573
e 572 575
e 572 576
e 573 574
e 573 576
e 573 577
e 573 578
e 574 578
e 574 581
e 575 626
e 575 656
e 575 576
e 575 579
e 576 577
e 576 579
e 576 585
e 576 584
e 577 578
e 577 584
e 577 583
e 578 581
e 578 582
e 578 583
e 579 656
e 579 585
e 579 587
e 579 590
e 579 593
e 581 582
e 581 586
e 582 583
e 582 586
e 582 589
e 582 591
e 582 595
e 583 584
e 583 591
e 583 594
e 584 585
e 584 588
e 584 594
e 585 587
e 585 588
e 586 589
e 587 588
e 587 590
e 588 590
e 588 594
e 588 599
e 589 595
e 589 598
e 589 600
e 589 601
e 590 593
e 590 599
e 591 595
e 591 594
e 591 597
e 591 596
e 592 598
e 593 656
e 593 599
e 593 603
e 593 604
e 593 609
e 593 614
e 593 621
e 593 648
e 594 597
e 594 599
e 594 602
e 594 603
e 594 604
e 595 596
e 595 601
e 595 608
e 596 597
e 596 608
e 596 602
e 597 602
e 598 600
e 598 607
e 599 603
e 600 601
e 600 605
e 600 606
e 600 607
e 601 605
e 601 608
e 602 608
e 602 604
e 602 611
e 603 604
e 604 611
e 604 609
e 605 606
e 605 608
e 606 607
e 606 610
e 606 608
e 607 610
e 608 610
e 608 611
e 608 612
e 608 613
e 609 611
e 609 614
e 610 613
e 610 615
e 611 612
e 611 614
e 612 613
e 612 614
e 612 619
e 612 621
e 613 615
e 613 619
e 613 616
e 613 624
e 614 621
e 615 617
e 615 616
e 616 617
e 616 624
e 617 618
e 617 624
e 618 620
e 619 621
e 619 624
e 619 623
e 619 625
e 620 622
e 621 623
e 623 625
e 624 625
e 626 654
e 626 627
e 626 655
e 626 656
e 627 652
e 627 651
e 627 653
e 627 654
e 628 629
e 628 651
e 629 631
e 629 630
e 629 651
e 630 631
e 630 636
e 630 647
e 630 649
e 630 650
e 630 651
e 631 634
e 631 632
e 631 636
e 632 634
e 632 633
e 633 634
e 633 635
e 634 639
e 634 635
e 634 638
e 634 637
e 634 636
e 635 639
e 636 641
e 636 637
e 636 643
e 636 647
e 637 640
e 637 638
e 637 641
e 638 640
e 638 639
e 639 642
e 639 640
e 640 642
e 640 641
e 641 642
e 641 643
e 642 643
e 643 644
e 643 646
e 643 647
e 644 646
e 644 645
e 644 647
e 645 646
e 645 647
e 645 648
e 646 648
e 647 649
e 647 648
e 648 649
e 648 652
e 648 653
e 648 656
e 649 650
e 649 652
e 650 651
e 650 652
e 651 652
e 652 653
e 653 654
e 653 655
e 653 656
e 654 655
e 655 656
